objective value:                     563499.999999997
t#1                                  110070.266637561 	(obj:1)
t#2                                  139911.373245615 	(obj:1)
t#3                                  5666.33135606913 	(obj:1)
t#4                                  4718.98792916173 	(obj:1)
t#5                                   34402.084980145 	(obj:1)
t#6                                  89386.8123171299 	(obj:1)
t#7                                  179344.143534315 	(obj:1)
r#1                                  23.0000867451146 	(obj:0)
r#2                                 -26.0001280326307 	(obj:0)
r#3                                 -3.83340863813627 	(obj:0)
r#4                                  3.16658180474634 	(obj:0)
r#5                                  12.4999224860462 	(obj:0)
r#6                                  20.6668179580074 	(obj:0)
r#7                                   -29.50008538438 	(obj:0)

higher score == less difficult
Ranking for problems from 1 to 7 (with 1 being the most difficult):
7 2 3 4 5 6 1

